142
65
75
108
148
97
146
118
178
26
120
21
128
15
75
369
41
57
244
138
86
297
113
13
206
246
39
19
113
270
24
71
98
0
132
44
166
17
112
65
69
11
87
66
63
94
0
137
169
112
22
62
49
172
55
84
93
63
248
24
41
97
32
33
32
100
29
113
222
23
36
39
193
113
202
71
28
15
74
154
84
0
244
89
159
257
292
99
16
98
137
170
129
132
81
100
92
63
135
45
